6 
2 
4 
4 
5 
6 
5 
4 
4 
3 
10 
9 
7 
6 
7 
2 
5 
6 
1 
7 
2 
5 
4 
5 
2 
7 
5 
7 
9 
5 
5 
3 
1 
7 
7 
6 
1 
6 
3 
9 
5 
8 
4 
4 
8 
3 
6 
8 
6 
4 
5 
5 
4 
3 
4 
4 
6 
5 
5 
5 
9 
2 
4 
6 
8 
1 
5 
3 
3 
8 
5 
6 
6 
11 
3 
6 
4 
4 
2 
4 
2 
2 
6 
3 
6 
6 
4 
8 
6 
7 
10 
5 
2 
4 
1 
3 
6 
5 
9 
5 
